NAME : portgen-15-12
COMMENT : portgen N=15, seed=12
TYPE : TSP
DIMENSION : 15
EDGE_WEIGHT_TYPE : EUC_2D
NODE_COORD_SECTION
1 992149 823700
2 658503 412865
3 995271 541325
4 979486 328279
5 154031 473760
6 775588 649034
7 674425 372571
8 335733 480068
9 930498 336194
10 464482 6117
11 935333 999935
12 792896 686725
13 493620 406208
14 628704 732102
15 226211 760426
